p cnf 430 1488
-191 -172 0
-191 122 0
-191 133 0
-191 -184 0
-191 -31 0
191 172 -122 -133 184 31 0
-192 68 0
-192 17 0
-192 113 0
-192 -151 0
-192 -112 0
192 -68 -17 -113 151 112 0
-193 45 0
-193 55 0
-193 -76 0
-193 -166 0
-193 5 0
193 -45 -55 76 166 -5 0
-194 -22 0
-194 -162 0
-194 -80 0
-194 -83 0
-194 88 0
194 22 162 80 83 -88 0
-195 -160 0
-195 143 0
-195 183 0
-195 -92 0
-195 -24 0
195 160 -143 -183 92 24 0
191 192 193 194 195 0
-196 63 0
-196 5 0
-196 186 0
-196 154 0
-196 -9 0
196 -63 -5 -186 -154 9 0
-197 -94 0
-197 83 0
-197 -142 0
-197 -45 0
-197 -100 0
197 94 -83 142 45 100 0
-198 137 0
-198 -117 0
-198 38 0
-198 -7 0
-198 85 0
198 -137 117 -38 7 -85 0
-199 -141 0
-199 -40 0
-199 -182 0
-199 153 0
-199 188 0
199 141 40 182 -153 -188 0
-200 35 0
-200 20 0
-200 49 0
-200 -165 0
-200 109 0
200 -35 -20 -49 165 -109 0
196 197 198 199 200 0
-201 15 0
-201 148 0
-201 166 0
-201 -30 0
-201 -82 0
201 -15 -148 -166 30 82 0
-202 62 0
-202 186 0
-202 169 0
-202 -135 0
-202 121 0
202 -62 -186 -169 135 -121 0
-203 -43 0
-203 -143 0
-203 130 0
-203 -113 0
-203 159 0
203 43 143 -130 113 -159 0
-204 4 0
-204 -15 0
-204 -156 0
-204 155 0
-204 154 0
204 -4 15 156 -155 -154 0
-205 102 0
-205 -94 0
-205 -53 0
-205 90 0
-205 91 0
205 -102 94 53 -90 -91 0
201 202 203 204 205 0
-206 -89 0
-206 141 0
-206 -176 0
-206 13 0
-206 157 0
206 89 -141 176 -13 -157 0
-207 78 0
-207 110 0
-207 113 0
-207 161 0
-207 -41 0
207 -78 -110 -113 -161 41 0
-208 -57 0
-208 -160 0
-208 -163 0
-208 82 0
-208 149 0
208 57 160 163 -82 -149 0
-209 -149 0
-209 -23 0
-209 168 0
-209 -108 0
-209 17 0
209 149 23 -168 108 -17 0
-210 57 0
-210 -7 0
-210 -48 0
-210 111 0
-210 -154 0
210 -57 7 48 -111 154 0
206 207 208 209 210 0
-211 34 0
-211 16 0
-211 84 0
-211 96 0
-211 108 0
211 -34 -16 -84 -96 -108 0
-212 -112 0
-212 -8 0
-212 -5 0
-212 49 0
-212 -175 0
212 112 8 5 -49 175 0
-213 46 0
-213 -90 0
-213 35 0
-213 -133 0
-213 -168 0
213 -46 90 -35 133 168 0
-214 130 0
-214 -50 0
-214 -128 0
-214 73 0
-214 -84 0
214 -130 50 128 -73 84 0
-215 -179 0
-215 78 0
-215 135 0
-215 -56 0
-215 -63 0
215 179 -78 -135 56 63 0
211 212 213 214 215 0
-216 61 0
-216 -145 0
-216 -91 0
-216 -156 0
-216 -32 0
216 -61 145 91 156 32 0
-217 27 0
-217 -58 0
-217 157 0
-217 -53 0
-217 -169 0
217 -27 58 -157 53 169 0
-218 -42 0
-218 103 0
-218 -79 0
-218 33 0
-218 66 0
218 42 -103 79 -33 -66 0
-219 124 0
-219 31 0
-219 -19 0
-219 -121 0
-219 12 0
219 -124 -31 19 121 -12 0
-220 -106 0
-220 -100 0
-220 -111 0
-220 151 0
-220 -144 0
220 106 100 111 -151 144 0
216 217 218 219 220 0
-221 -53 0
-221 -6 0
-221 61 0
-221 104 0
-221 -174 0
221 53 6 -61 -104 174 0
-222 -184 0
-222 -72 0
-222 -107 0
-222 -84 0
-222 -170 0
222 184 72 107 84 170 0
-223 81 0
-223 26 0
-223 120 0
-223 -97 0
-223 27 0
223 -81 -26 -120 97 -27 0
-224 -58 0
-224 174 0
-224 -147 0
-224 -159 0
-224 145 0
224 58 -174 147 159 -145 0
-225 17 0
-225 127 0
-225 109 0
-225 -36 0
-225 -26 0
225 -17 -127 -109 36 26 0
221 222 223 224 225 0
-226 55 0
-226 -78 0
-226 -115 0
-226 -47 0
-226 106 0
226 -55 78 115 47 -106 0
-227 119 0
-227 -1 0
-227 175 0
-227 6 0
-227 -179 0
227 -119 1 -175 -6 179 0
-228 -21 0
-228 -162 0
-228 -117 0
-228 -24 0
-228 36 0
228 21 162 117 24 -36 0
-229 -136 0
-229 78 0
-229 114 0
-229 -143 0
-229 119 0
229 136 -78 -114 143 -119 0
-230 92 0
-230 -66 0
-230 46 0
-230 27 0
-230 122 0
230 -92 66 -46 -27 -122 0
226 227 228 229 230 0
-231 -133 0
-231 26 0
-231 127 0
-231 -176 0
-231 44 0
231 133 -26 -127 176 -44 0
-232 179 0
-232 7 0
-232 35 0
-232 -31 0
-232 29 0
232 -179 -7 -35 31 -29 0
-233 97 0
-233 143 0
-233 105 0
-233 88 0
-233 109 0
233 -97 -143 -105 -88 -109 0
-234 101 0
-234 74 0
-234 163 0
-234 125 0
-234 -92 0
234 -101 -74 -163 -125 92 0
-235 85 0
-235 108 0
-235 129 0
-235 -186 0
-235 127 0
235 -85 -108 -129 186 -127 0
231 232 233 234 235 0
-236 -78 0
-236 -97 0
-236 -63 0
-236 -110 0
-236 -140 0
236 78 97 63 110 140 0
-237 46 0
-237 161 0
-237 -79 0
-237 -154 0
-237 115 0
237 -46 -161 79 154 -115 0
-238 -105 0
-238 -155 0
-238 24 0
-238 -114 0
-238 63 0
238 105 155 -24 114 -63 0
-239 -37 0
-239 177 0
-239 -86 0
-239 82 0
-239 152 0
239 37 -177 86 -82 -152 0
-240 -114 0
-240 -185 0
-240 186 0
-240 67 0
-240 6 0
240 114 185 -186 -67 -6 0
236 237 238 239 240 0
-241 -97 0
-241 53 0
-241 139 0
-241 68 0
-241 -100 0
241 97 -53 -139 -68 100 0
-242 -28 0
-242 -174 0
-242 -173 0
-242 -152 0
-242 68 0
242 28 174 173 152 -68 0
-243 40 0
-243 19 0
-243 118 0
-243 190 0
-243 48 0
243 -40 -19 -118 -190 -48 0
-244 185 0
-244 -53 0
-244 -188 0
-244 86 0
-244 -35 0
244 -185 53 188 -86 35 0
-245 42 0
-245 81 0
-245 184 0
-245 79 0
-245 67 0
245 -42 -81 -184 -79 -67 0
241 242 243 244 245 0
-246 -95 0
-246 -172 0
-246 150 0
-246 89 0
-246 -5 0
246 95 172 -150 -89 5 0
-247 -40 0
-247 -186 0
-247 88 0
-247 -48 0
-247 153 0
247 40 186 -88 48 -153 0
-248 167 0
-248 -177 0
-248 162 0
-248 47 0
-248 -170 0
248 -167 177 -162 -47 170 0
-249 14 0
-249 -22 0
-249 -158 0
-249 152 0
-249 162 0
249 -14 22 158 -152 -162 0
-250 -141 0
-250 -124 0
-250 -129 0
-250 -108 0
-250 170 0
250 141 124 129 108 -170 0
246 247 248 249 250 0
-251 96 0
-251 60 0
-251 -27 0
-251 -43 0
-251 -8 0
251 -96 -60 27 43 8 0
-252 6 0
-252 -140 0
-252 141 0
-252 67 0
-252 -175 0
252 -6 140 -141 -67 175 0
-253 -73 0
-253 -117 0
-253 161 0
-253 166 0
-253 -93 0
253 73 117 -161 -166 93 0
-254 16 0
-254 -157 0
-254 -179 0
-254 -102 0
-254 182 0
254 -16 157 179 102 -182 0
-255 90 0
-255 104 0
-255 135 0
-255 -55 0
-255 -108 0
255 -90 -104 -135 55 108 0
251 252 253 254 255 0
-256 25 0
-256 -39 0
-256 -140 0
-256 177 0
-256 -129 0
256 -25 39 140 -177 129 0
-257 95 0
-257 49 0
-257 158 0
-257 185 0
-257 110 0
257 -95 -49 -158 -185 -110 0
-258 -13 0
-258 85 0
-258 -139 0
-258 -75 0
-258 53 0
258 13 -85 139 75 -53 0
-259 -99 0
-259 -96 0
-259 -46 0
-259 56 0
-259 -59 0
259 99 96 46 -56 59 0
-260 175 0
-260 54 0
-260 -63 0
-260 -95 0
-260 -56 0
260 -175 -54 63 95 56 0
256 257 258 259 260 0
-261 115 0
-261 -67 0
-261 24 0
-261 95 0
-261 -125 0
261 -115 67 -24 -95 125 0
-262 9 0
-262 -158 0
-262 68 0
-262 25 0
-262 187 0
262 -9 158 -68 -25 -187 0
-263 177 0
-263 -93 0
-263 165 0
-263 -23 0
-263 -185 0
263 -177 93 -165 23 185 0
-264 14 0
-264 143 0
-264 24 0
-264 -140 0
-264 -101 0
264 -14 -143 -24 140 101 0
-265 85 0
-265 48 0
-265 -56 0
-265 -89 0
-265 176 0
265 -85 -48 56 89 -176 0
261 262 263 264 265 0
-266 -101 0
-266 -43 0
-266 92 0
-266 50 0
-266 -19 0
266 101 43 -92 -50 19 0
-267 -136 0
-267 4 0
-267 -87 0
-267 -183 0
-267 24 0
267 136 -4 87 183 -24 0
-268 -153 0
-268 -9 0
-268 33 0
-268 121 0
-268 124 0
268 153 9 -33 -121 -124 0
-269 148 0
-269 -133 0
-269 -142 0
-269 131 0
-269 -26 0
269 -148 133 142 -131 26 0
-270 108 0
-270 -24 0
-270 -54 0
-270 -81 0
-270 -47 0
270 -108 24 54 81 47 0
266 267 268 269 270 0
-271 -140 0
-271 -92 0
-271 -53 0
-271 -72 0
-271 -60 0
271 140 92 53 72 60 0
-272 44 0
-272 153 0
-272 152 0
-272 -40 0
-272 -94 0
272 -44 -153 -152 40 94 0
-273 -62 0
-273 -109 0
-273 -166 0
-273 -164 0
-273 69 0
273 62 109 166 164 -69 0
-274 116 0
-274 162 0
-274 74 0
-274 -149 0
-274 -50 0
274 -116 -162 -74 149 50 0
-275 101 0
-275 -33 0
-275 141 0
-275 120 0
-275 34 0
275 -101 33 -141 -120 -34 0
271 272 273 274 275 0
-276 -127 0
-276 -95 0
-276 134 0
-276 -167 0
-276 -132 0
276 127 95 -134 167 132 0
-277 65 0
-277 -128 0
-277 125 0
-277 -131 0
-277 139 0
277 -65 128 -125 131 -139 0
-278 -132 0
-278 -172 0
-278 27 0
-278 -168 0
-278 52 0
278 132 172 -27 168 -52 0
-279 -43 0
-279 147 0
-279 186 0
-279 -41 0
-279 -46 0
279 43 -147 -186 41 46 0
-280 154 0
-280 143 0
-280 -76 0
-280 -183 0
-280 -138 0
280 -154 -143 76 183 138 0
276 277 278 279 280 0
-281 107 0
-281 68 0
-281 128 0
-281 15 0
-281 -37 0
281 -107 -68 -128 -15 37 0
-282 -141 0
-282 156 0
-282 -152 0
-282 -165 0
-282 -73 0
282 141 -156 152 165 73 0
-283 -145 0
-283 -24 0
-283 99 0
-283 81 0
-283 35 0
283 145 24 -99 -81 -35 0
-284 -140 0
-284 85 0
-284 -130 0
-284 86 0
-284 76 0
284 140 -85 130 -86 -76 0
-285 -39 0
-285 85 0
-285 -50 0
-285 -190 0
-285 46 0
285 39 -85 50 190 -46 0
281 282 283 284 285 0
-286 131 0
-286 189 0
-286 -3 0
-286 -137 0
-286 -141 0
286 -131 -189 3 137 141 0
-287 -7 0
-287 167 0
-287 -123 0
-287 31 0
-287 17 0
287 7 -167 123 -31 -17 0
-288 18 0
-288 38 0
-288 -128 0
-288 -28 0
-288 96 0
288 -18 -38 128 28 -96 0
-289 -111 0
-289 -66 0
-289 -62 0
-289 -173 0
-289 -25 0
289 111 66 62 173 25 0
-290 17 0
-290 106 0
-290 -29 0
-290 -9 0
-290 114 0
290 -17 -106 29 9 -114 0
286 287 288 289 290 0
-291 -138 0
-291 -77 0
-291 -38 0
-291 37 0
-291 -19 0
291 138 77 38 -37 19 0
-292 -187 0
-292 -91 0
-292 16 0
-292 11 0
-292 6 0
292 187 91 -16 -11 -6 0
-293 115 0
-293 34 0
-293 108 0
-293 7 0
-293 -144 0
293 -115 -34 -108 -7 144 0
-294 -135 0
-294 113 0
-294 15 0
-294 -190 0
-294 99 0
294 135 -113 -15 190 -99 0
-295 169 0
-295 -47 0
-295 -163 0
-295 -137 0
-295 24 0
295 -169 47 163 137 -24 0
291 292 293 294 295 0
-296 -74 0
-296 -165 0
-296 -80 0
-296 140 0
-296 121 0
296 74 165 80 -140 -121 0
-297 40 0
-297 59 0
-297 -152 0
-297 -181 0
-297 141 0
297 -40 -59 152 181 -141 0
-298 -46 0
-298 -74 0
-298 48 0
-298 -115 0
-298 116 0
298 46 74 -48 115 -116 0
-299 136 0
-299 150 0
-299 -117 0
-299 143 0
-299 -9 0
299 -136 -150 117 -143 9 0
-300 88 0
-300 -176 0
-300 -145 0
-300 -8 0
-300 -166 0
300 -88 176 145 8 166 0
296 297 298 299 300 0
-301 -99 0
-301 -185 0
-301 -171 0
-301 -137 0
-301 136 0
301 99 185 171 137 -136 0
-302 -150 0
-302 110 0
-302 13 0
-302 -19 0
-302 158 0
302 150 -110 -13 19 -158 0
-303 132 0
-303 -48 0
-303 -142 0
-303 185 0
-303 25 0
303 -132 48 142 -185 -25 0
-304 146 0
-304 -68 0
-304 97 0
-304 42 0
-304 -104 0
304 -146 68 -97 -42 104 0
-305 -140 0
-305 8 0
-305 -135 0
-305 95 0
-305 107 0
305 140 -8 135 -95 -107 0
301 302 303 304 305 0
-306 -142 0
-306 -113 0
-306 -163 0
-306 131 0
-306 139 0
306 142 113 163 -131 -139 0
-307 99 0
-307 113 0
-307 -78 0
-307 -72 0
-307 -55 0
307 -99 -113 78 72 55 0
-308 -128 0
-308 57 0
-308 -32 0
-308 -138 0
-308 -45 0
308 128 -57 32 138 45 0
-309 -186 0
-309 151 0
-309 42 0
-309 74 0
-309 -169 0
309 186 -151 -42 -74 169 0
-310 -110 0
-310 147 0
-310 -94 0
-310 -174 0
-310 -154 0
310 110 -147 94 174 154 0
306 307 308 309 310 0
-311 173 0
-311 126 0
-311 2 0
-311 30 0
-311 26 0
311 -173 -126 -2 -30 -26 0
-312 7 0
-312 146 0
-312 -29 0
-312 -95 0
-312 -112 0
312 -7 -146 29 95 112 0
-313 14 0
-313 -177 0
-313 -59 0
-313 141 0
-313 78 0
313 -14 177 59 -141 -78 0
-314 -110 0
-314 102 0
-314 -162 0
-314 73 0
-314 97 0
314 110 -102 162 -73 -97 0
-315 -56 0
-315 -187 0
-315 160 0
-315 109 0
-315 -118 0
315 56 187 -160 -109 118 0
311 312 313 314 315 0
-316 45 0
-316 -14 0
-316 -166 0
-316 -132 0
-316 -92 0
316 -45 14 166 132 92 0
-317 -30 0
-317 -7 0
-317 153 0
-317 -58 0
-317 -103 0
317 30 7 -153 58 103 0
-318 99 0
-318 45 0
-318 98 0
-318 -106 0
-318 -26 0
318 -99 -45 -98 106 26 0
-319 178 0
-319 39 0
-319 9 0
-319 120 0
-319 -145 0
319 -178 -39 -9 -120 145 0
-320 136 0
-320 -187 0
-320 -147 0
-320 175 0
-320 88 0
320 -136 187 147 -175 -88 0
316 317 318 319 320 0
-321 -101 0
-321 26 0
-321 44 0
-321 95 0
-321 -127 0
321 101 -26 -44 -95 127 0
-322 -141 0
-322 -3 0
-322 -7 0
-322 -158 0
-322 -83 0
322 141 3 7 158 83 0
-323 -43 0
-323 -28 0
-323 -143 0
-323 116 0
-323 -27 0
323 43 28 143 -116 27 0
-324 56 0
-324 -82 0
-324 -38 0
-324 -88 0
-324 -63 0
324 -56 82 38 88 63 0
-325 -161 0
-325 59 0
-325 180 0
-325 23 0
-325 -40 0
325 161 -59 -180 -23 40 0
321 322 323 324 325 0
-326 112 0
-326 139 0
-326 -104 0
-326 160 0
-326 32 0
326 -112 -139 104 -160 -32 0
-327 -152 0
-327 27 0
-327 -142 0
-327 26 0
-327 -91 0
327 152 -27 142 -26 91 0
-328 -39 0
-328 -87 0
-328 126 0
-328 -178 0
-328 80 0
328 39 87 -126 178 -80 0
-329 -152 0
-329 -43 0
-329 46 0
-329 -100 0
-329 -131 0
329 152 43 -46 100 131 0
-330 153 0
-330 -141 0
-330 -105 0
-330 -93 0
-330 91 0
330 -153 141 105 93 -91 0
326 327 328 329 330 0
-331 142 0
-331 -118 0
-331 -100 0
-331 -9 0
-331 76 0
331 -142 118 100 9 -76 0
-332 164 0
-332 190 0
-332 180 0
-332 139 0
-332 144 0
332 -164 -190 -180 -139 -144 0
-333 71 0
-333 44 0
-333 -154 0
-333 99 0
-333 -11 0
333 -71 -44 154 -99 11 0
-334 168 0
-334 32 0
-334 -179 0
-334 -180 0
-334 67 0
334 -168 -32 179 180 -67 0
-335 -145 0
-335 -42 0
-335 175 0
-335 116 0
-335 155 0
335 145 42 -175 -116 -155 0
331 332 333 334 335 0
-336 -173 0
-336 -155 0
-336 43 0
-336 125 0
-336 86 0
336 173 155 -43 -125 -86 0
-337 70 0
-337 80 0
-337 81 0
-337 136 0
-337 -166 0
337 -70 -80 -81 -136 166 0
-338 -42 0
-338 178 0
-338 -96 0
-338 107 0
-338 -87 0
338 42 -178 96 -107 87 0
-339 51 0
-339 -29 0
-339 -129 0
-339 117 0
-339 7 0
339 -51 29 129 -117 -7 0
-340 90 0
-340 -163 0
-340 -116 0
-340 55 0
-340 -154 0
340 -90 163 116 -55 154 0
336 337 338 339 340 0
-341 83 0
-341 32 0
-341 79 0
-341 146 0
-341 -117 0
341 -83 -32 -79 -146 117 0
-342 143 0
-342 83 0
-342 18 0
-342 -112 0
-342 -27 0
342 -143 -83 -18 112 27 0
-343 181 0
-343 76 0
-343 87 0
-343 92 0
-343 -82 0
343 -181 -76 -87 -92 82 0
-344 59 0
-344 49 0
-344 -76 0
-344 149 0
-344 -13 0
344 -59 -49 76 -149 13 0
-345 90 0
-345 81 0
-345 -2 0
-345 -176 0
-345 39 0
345 -90 -81 2 176 -39 0
341 342 343 344 345 0
-346 56 0
-346 -43 0
-346 -124 0
-346 -133 0
-346 128 0
346 -56 43 124 133 -128 0
-347 -95 0
-347 -35 0
-347 -87 0
-347 71 0
-347 -134 0
347 95 35 87 -71 134 0
-348 2 0
-348 137 0
-348 67 0
-348 154 0
-348 -79 0
348 -2 -137 -67 -154 79 0
-349 91 0
-349 -3 0
-349 140 0
-349 149 0
-349 22 0
349 -91 3 -140 -149 -22 0
-350 -165 0
-350 79 0
-350 147 0
-350 28 0
-350 -63 0
350 165 -79 -147 -28 63 0
346 347 348 349 350 0
-351 -77 0
-351 183 0
-351 -148 0
-351 -61 0
-351 158 0
351 77 -183 148 61 -158 0
-352 32 0
-352 -72 0
-352 -104 0
-352 63 0
-352 -185 0
352 -32 72 104 -63 185 0
-353 -25 0
-353 -43 0
-353 -48 0
-353 170 0
-353 -173 0
353 25 43 48 -170 173 0
-354 116 0
-354 140 0
-354 -124 0
-354 126 0
-354 69 0
354 -116 -140 124 -126 -69 0
-355 -24 0
-355 -148 0
-355 -171 0
-355 -86 0
-355 162 0
355 24 148 171 86 -162 0
351 352 353 354 355 0
-356 -50 0
-356 -19 0
-356 4 0
-356 53 0
-356 62 0
356 50 19 -4 -53 -62 0
-357 -133 0
-357 45 0
-357 -169 0
-357 128 0
-357 -90 0
357 133 -45 169 -128 90 0
-358 165 0
-358 53 0
-358 58 0
-358 105 0
-358 181 0
358 -165 -53 -58 -105 -181 0
-359 84 0
-359 32 0
-359 41 0
-359 -189 0
-359 -22 0
359 -84 -32 -41 189 22 0
-360 82 0
-360 162 0
-360 88 0
-360 96 0
-360 -66 0
360 -82 -162 -88 -96 66 0
356 357 358 359 360 0
-361 99 0
-361 -145 0
-361 141 0
-361 -129 0
-361 -189 0
361 -99 145 -141 129 189 0
-362 -173 0
-362 8 0
-362 -93 0
-362 133 0
-362 -45 0
362 173 -8 93 -133 45 0
-363 -95 0
-363 115 0
-363 -63 0
-363 102 0
-363 -9 0
363 95 -115 63 -102 9 0
-364 -128 0
-364 15 0
-364 60 0
-364 81 0
-364 -83 0
364 128 -15 -60 -81 83 0
-365 -141 0
-365 91 0
-365 184 0
-365 9 0
-365 37 0
365 141 -91 -184 -9 -37 0
361 362 363 364 365 0
-366 68 0
-366 46 0
-366 159 0
-366 50 0
-366 -75 0
366 -68 -46 -159 -50 75 0
-367 120 0
-367 11 0
-367 169 0
-367 -64 0
-367 112 0
367 -120 -11 -169 64 -112 0
-368 -158 0
-368 -95 0
-368 18 0
-368 166 0
-368 106 0
368 158 95 -18 -166 -106 0
-369 108 0
-369 -12 0
-369 148 0
-369 36 0
-369 -18 0
369 -108 12 -148 -36 18 0
-370 109 0
-370 -77 0
-370 -102 0
-370 29 0
-370 -91 0
370 -109 77 102 -29 91 0
366 367 368 369 370 0
-371 -146 0
-371 -148 0
-371 14 0
-371 96 0
-371 -135 0
371 146 148 -14 -96 135 0
-372 -94 0
-372 90 0
-372 -45 0
-372 -155 0
-372 59 0
372 94 -90 45 155 -59 0
-373 -16 0
-373 -19 0
-373 116 0
-373 -181 0
-373 178 0
373 16 19 -116 181 -178 0
-374 -100 0
-374 155 0
-374 144 0
-374 75 0
-374 27 0
374 100 -155 -144 -75 -27 0
-375 90 0
-375 -17 0
-375 -107 0
-375 52 0
-375 128 0
375 -90 17 107 -52 -128 0
371 372 373 374 375 0
-376 -181 0
-376 -185 0
-376 -14 0
-376 13 0
-376 186 0
376 181 185 14 -13 -186 0
-377 -99 0
-377 -39 0
-377 -153 0
-377 -75 0
-377 -27 0
377 99 39 153 75 27 0
-378 122 0
-378 -51 0
-378 -152 0
-378 -34 0
-378 -168 0
378 -122 51 152 34 168 0
-379 45 0
-379 -166 0
-379 -51 0
-379 -46 0
-379 158 0
379 -45 166 51 46 -158 0
-380 -32 0
-380 187 0
-380 98 0
-380 8 0
-380 -128 0
380 32 -187 -98 -8 128 0
376 377 378 379 380 0
-381 183 0
-381 21 0
-381 -42 0
-381 167 0
-381 41 0
381 -183 -21 42 -167 -41 0
-382 -169 0
-382 96 0
-382 -69 0
-382 97 0
-382 -27 0
382 169 -96 69 -97 27 0
-383 177 0
-383 64 0
-383 -1 0
-383 120 0
-383 110 0
383 -177 -64 1 -120 -110 0
-384 136 0
-384 152 0
-384 -98 0
-384 -95 0
-384 93 0
384 -136 -152 98 95 -93 0
-385 -61 0
-385 21 0
-385 -59 0
-385 37 0
-385 90 0
385 61 -21 59 -37 -90 0
381 382 383 384 385 0
-386 90 0
-386 -9 0
-386 78 0
-386 -57 0
-386 -140 0
386 -90 9 -78 57 140 0
-387 117 0
-387 41 0
-387 -51 0
-387 -86 0
-387 -133 0
387 -117 -41 51 86 133 0
-388 -69 0
-388 61 0
-388 -105 0
-388 -127 0
-388 -12 0
388 69 -61 105 127 12 0
-389 69 0
-389 169 0
-389 -70 0
-389 -147 0
-389 16 0
389 -69 -169 70 147 -16 0
-390 -181 0
-390 21 0
-390 101 0
-390 46 0
-390 74 0
390 181 -21 -101 -46 -74 0
386 387 388 389 390 0
-391 122 0
-391 189 0
-391 98 0
-391 -131 0
-391 136 0
391 -122 -189 -98 131 -136 0
-392 4 0
-392 84 0
-392 -183 0
-392 -13 0
-392 172 0
392 -4 -84 183 13 -172 0
-393 182 0
-393 -148 0
-393 132 0
-393 -40 0
-393 -173 0
393 -182 148 -132 40 173 0
-394 -68 0
-394 123 0
-394 -78 0
-394 135 0
-394 -49 0
394 68 -123 78 -135 49 0
-395 -63 0
-395 170 0
-395 39 0
-395 -44 0
-395 -28 0
395 63 -170 -39 44 28 0
391 392 393 394 395 0
-396 107 0
-396 40 0
-396 189 0
-396 -135 0
-396 171 0
396 -107 -40 -189 135 -171 0
-397 -103 0
-397 -122 0
-397 -68 0
-397 -6 0
-397 -9 0
397 103 122 68 6 9 0
-398 -80 0
-398 72 0
-398 -145 0
-398 -91 0
-398 -138 0
398 80 -72 145 91 138 0
-399 108 0
-399 -60 0
-399 -179 0
-399 28 0
-399 -43 0
399 -108 60 179 -28 43 0
-400 -115 0
-400 -142 0
-400 -68 0
-400 -46 0
-400 5 0
400 115 142 68 46 -5 0
396 397 398 399 400 0
-401 -108 0
-401 -169 0
-401 -5 0
-401 53 0
-401 -95 0
401 108 169 5 -53 95 0
-402 58 0
-402 155 0
-402 108 0
-402 44 0
-402 -17 0
402 -58 -155 -108 -44 17 0
-403 110 0
-403 149 0
-403 -89 0
-403 -19 0
-403 59 0
403 -110 -149 89 19 -59 0
-404 -129 0
-404 48 0
-404 160 0
-404 -147 0
-404 -29 0
404 129 -48 -160 147 29 0
-405 -184 0
-405 54 0
-405 -13 0
-405 -178 0
-405 117 0
405 184 -54 13 178 -117 0
401 402 403 404 405 0
-406 -99 0
-406 -15 0
-406 -136 0
-406 -58 0
-406 74 0
406 99 15 136 58 -74 0
-407 -61 0
-407 -133 0
-407 111 0
-407 181 0
-407 -2 0
407 61 133 -111 -181 2 0
-408 67 0
-408 -172 0
-408 -132 0
-408 -126 0
-408 183 0
408 -67 172 132 126 -183 0
-409 107 0
-409 68 0
-409 109 0
-409 -91 0
-409 167 0
409 -107 -68 -109 91 -167 0
-410 157 0
-410 16 0
-410 44 0
-410 -79 0
-410 -125 0
410 -157 -16 -44 79 125 0
406 407 408 409 410 0
-411 133 0
-411 -168 0
-411 -166 0
-411 3 0
-411 141 0
411 -133 168 166 -3 -141 0
-412 4 0
-412 1 0
-412 -166 0
-412 -189 0
-412 25 0
412 -4 -1 166 189 -25 0
-413 -108 0
-413 -75 0
-413 -145 0
-413 180 0
-413 45 0
413 108 75 145 -180 -45 0
-414 -6 0
-414 -149 0
-414 186 0
-414 154 0
-414 115 0
414 6 149 -186 -154 -115 0
-415 14 0
-415 -41 0
-415 -51 0
-415 21 0
-415 147 0
415 -14 41 51 -21 -147 0
411 412 413 414 415 0
-416 -147 0
-416 189 0
-416 142 0
-416 2 0
-416 79 0
416 147 -189 -142 -2 -79 0
-417 76 0
-417 -115 0
-417 22 0
-417 -38 0
-417 70 0
417 -76 115 -22 38 -70 0
-418 -18 0
-418 -65 0
-418 -118 0
-418 180 0
-418 -27 0
418 18 65 118 -180 27 0
-419 -15 0
-419 162 0
-419 43 0
-419 -144 0
-419 -124 0
419 15 -162 -43 144 124 0
-420 -160 0
-420 112 0
-420 -178 0
-420 26 0
-420 -1 0
420 160 -112 178 -26 1 0
416 417 418 419 420 0
-421 181 0
-421 40 0
-421 109 0
-421 -128 0
-421 -60 0
421 -181 -40 -109 128 60 0
-422 89 0
-422 -76 0
-422 -155 0
-422 -181 0
-422 183 0
422 -89 76 155 181 -183 0
-423 -18 0
-423 58 0
-423 41 0
-423 168 0
-423 30 0
423 18 -58 -41 -168 -30 0
-424 -9 0
-424 -80 0
-424 -176 0
-424 19 0
-424 -177 0
424 9 80 176 -19 177 0
-425 -169 0
-425 -129 0
-425 -176 0
-425 54 0
-425 78 0
425 169 129 176 -54 -78 0
421 422 423 424 425 0
-426 121 0
-426 119 0
-426 -92 0
-426 -145 0
-426 126 0
426 -121 -119 92 145 -126 0
-427 -101 0
-427 -167 0
-427 44 0
-427 -23 0
-427 -177 0
427 101 167 -44 23 177 0
-428 166 0
-428 72 0
-428 164 0
-428 165 0
-428 -155 0
428 -166 -72 -164 -165 155 0
-429 111 0
-429 -120 0
-429 87 0
-429 113 0
-429 -180 0
429 -111 120 -87 -113 180 0
-430 8 0
-430 -185 0
-430 140 0
-430 -40 0
-430 122 0
430 -8 185 -140 40 -122 0
426 427 428 429 430 0
